unsat
(:max-memory         18.52
 :memory             18.43
 :nlsat-arith-var    2
 :nlsat-atoms        13
 :nlsat-bool-var     3
 :nlsat-clauses      9
 :nlsat-conflicts    2
 :nlsat-propagations 10
 :nlsat-stages       2
 :num-allocs         71358
 :rlimit-count       1807
 :time               0.00
 :total-time         0.02)
